\* SlaveProblem *\
Maximize
OBJ: q1 + q10 + q11 + q12 + q13 + q14 + 0.5 q15 + 0.5 q16 + 0.5 q17 + 0.5 q18
 + 0.5 q19 + q2 + 0.5 q20 + 0.5 q21 + 0.5 q22 + 0.5 q23 + 0.5 q24 + 0.5 q25
 + 0.5 q26 + 0.5 q27 + 0.5 q28 + 0.5 q29 + q3 + 0.5 q30 + q4 + q5 + q6 + q7
 + q8 + q9
Subject To
_C1: 120 q1 + 102 q10 + 100 q11 + 97 q12 + 96 q13 + 95 q14 + 89 q15 + 84 q16
 + 82 q17 + 78 q18 + 77 q19 + 119 q2 + 76 q20 + 75 q21 + 74 q22 + 72 q23
 + 70 q24 + 68 q25 + 67 q26 + 65 q27 + 61 q28 + 60 q29 + 117 q3 + 59 q30
 + 53 q31 + 49 q32 + 46 q33 + 45 q34 + 41 q35 + 38 q36 + 34 q37 + 33 q38
 + 114 q4 + 113 q5 + 111 q6 + 109 q7 + 108 q8 + 107 q9 <= 150
Bounds
0 <= q1
0 <= q10
0 <= q11
0 <= q12
0 <= q13
0 <= q14
0 <= q15
0 <= q16
0 <= q17
0 <= q18
0 <= q19
0 <= q2
0 <= q20
0 <= q21
0 <= q22
0 <= q23
0 <= q24
0 <= q25
0 <= q26
0 <= q27
0 <= q28
0 <= q29
0 <= q3
0 <= q30
0 <= q31
0 <= q32
0 <= q33
0 <= q34
0 <= q35
0 <= q36
0 <= q37
0 <= q38
0 <= q4
0 <= q5
0 <= q6
0 <= q7
0 <= q8
0 <= q9
Generals
q1
q10
q11
q12
q13
q14
q15
q16
q17
q18
q19
q2
q20
q21
q22
q23
q24
q25
q26
q27
q28
q29
q3
q30
q31
q32
q33
q34
q35
q36
q37
q38
q4
q5
q6
q7
q8
q9
End
